(set-logic QF_LIA)
(set-info :ran/ran2.smt2)
(set-info :smt-lib-version 2.0)
(declare-fun x1 () Int)
(declare-fun x2 () Int)
(declare-fun x3 () Int)
(assert (<= (+ (* 5 x1) (* (- 7) x2) (* (- 1) x3) ) 4))
(assert (<= (+ (* 0 x1) (* 3 x2) (* 0 x3) ) (- 25)))
(assert (<= (+ (* 8 x1) (* 9 x2) (* 0 x3) ) 2))
(assert (<= (+ (* (- 7) x1) (* 0 x2) (* 6 x3) ) 16))
(assert (<= (+ (* (- 7) x1) (* (- 5) x2) (* 10 x3) ) (- 14)))
(assert (<= (+ (* 6 x1) (* 10 x2) (* 8 x3) ) 18))
(assert (<= (+ (* 1 x1) (* 0 x2) (* 0 x3) ) 28))
(assert (<= (+ (* (- 1) x1) (* 0 x2) (* 0 x3) ) 28))
(assert (<= (+ (* 0 x1) (* 1 x2) (* 0 x3) ) 28))
(assert (<= (+ (* 0 x1) (* (- 1) x2) (* 0 x3) ) 28))
(assert (<= (+ (* 0 x1) (* 0 x2) (* 1 x3) ) 28))
(assert (<= (+ (* 0 x1) (* 0 x2) (* (- 1) x3) ) 28))
